Si8 conventional cubic cell (diamond structure), a = 5.431 Ang
1.0
   5.431000000000000    0.000000000000000    0.000000000000000
   0.000000000000000    5.431000000000000    0.000000000000000
   0.000000000000000    0.000000000000000    5.431000000000000
Si
8
Direct
   0.000000000000000    0.000000000000000    0.000000000000000
   0.000000000000000    0.500000000000000    0.500000000000000
   0.500000000000000    0.000000000000000    0.500000000000000
   0.500000000000000    0.500000000000000    0.000000000000000
   0.250000000000000    0.250000000000000    0.250000000000000
   0.250000000000000    0.750000000000000    0.750000000000000
   0.750000000000000    0.250000000000000    0.750000000000000
   0.750000000000000    0.750000000000000    0.250000000000000
