generated by phonopy
   1.0
     9.8853994272356385    0.0000000000000000    0.0000000000000000
     0.0000000000000000   13.7698588633377650    0.0000000000000000
     0.0000000000000000    0.0000000000000000    9.5273619834473120
Mg Si O
  32   32   96
Direct
  0.2792823093336360  0.1250000000000000  0.2577855709004886
  0.7792823093336360  0.1250000000000000  0.2577855709004886
  0.2792823093336360  0.6250000000000000  0.2577855709004886
  0.7792823093336360  0.6250000000000000  0.2577855709004886
  0.2792823093336360  0.1250000000000000  0.7577855709004886
  0.7792823093336360  0.1250000000000000  0.7577855709004886
  0.2792823093336360  0.6250000000000000  0.7577855709004886
  0.7792823093336360  0.6250000000000000  0.7577855709004886
  0.2207176906663640  0.3749999999999999  0.2422144290995113
  0.7207176906663640  0.3749999999999999  0.2422144290995113
  0.2207176906663640  0.8750000000000000  0.2422144290995113
  0.7207176906663640  0.8750000000000000  0.2422144290995113
  0.2207176906663640  0.3749999999999999  0.7422144290995114
  0.7207176906663640  0.3749999999999999  0.7422144290995114
  0.2207176906663640  0.8750000000000000  0.7422144290995114
  0.7207176906663640  0.8750000000000000  0.7422144290995114
  0.4707176906663640  0.3749999999999999  0.0077855709004886
  0.9707176906663638  0.3749999999999999  0.0077855709004886
  0.4707176906663640  0.8750000000000000  0.0077855709004886
  0.9707176906663638  0.8750000000000000  0.0077855709004886
  0.4707176906663640  0.3749999999999999  0.5077855709004886
  0.9707176906663638  0.3749999999999999  0.5077855709004886
  0.4707176906663640  0.8750000000000000  0.5077855709004886
  0.9707176906663638  0.8750000000000000  0.5077855709004886
  0.0292823093336360  0.1250000000000000  0.4922144290995114
  0.5292823093336361  0.1250000000000000  0.4922144290995114
  0.0292823093336360  0.6250000000000000  0.4922144290995114
  0.5292823093336361  0.6250000000000000  0.4922144290995114
  0.0292823093336360  0.1250000000000000  0.9922144290995114
  0.5292823093336361  0.1250000000000000  0.9922144290995114
  0.0292823093336360  0.6250000000000000  0.9922144290995114
  0.5292823093336361  0.6250000000000000  0.9922144290995114
  0.0000000000000000  0.2500000000000000  0.2500000000000000
  0.4999999999999999  0.2500000000000000  0.2500000000000000
  0.0000000000000000  0.7499999999999999  0.2500000000000000
  0.4999999999999999  0.7499999999999999  0.2500000000000000
  0.0000000000000000  0.2500000000000000  0.7499999999999999
  0.4999999999999999  0.2500000000000000  0.7499999999999999
  0.0000000000000000  0.7499999999999999  0.7499999999999999
  0.4999999999999999  0.7499999999999999  0.7499999999999999
  0.2500000000000000  0.2500000000000000  0.0000000000000000
  0.7499999999999999  0.2500000000000000  0.0000000000000000
  0.2500000000000000  0.7499999999999999  0.0000000000000000
  0.7499999999999999  0.7499999999999999  0.0000000000000000
  0.2500000000000000  0.2500000000000000  0.5000000000000000
  0.7499999999999999  0.2500000000000000  0.5000000000000000
  0.2500000000000000  0.7499999999999999  0.5000000000000000
  0.7499999999999999  0.7499999999999999  0.5000000000000000
  0.0000000000000000  0.0000000000000000  0.2500000000000000
  0.4999999999999999  0.0000000000000000  0.2500000000000000
  0.0000000000000000  0.4999999999999999  0.2500000000000000
  0.4999999999999999  0.4999999999999999  0.2500000000000000
  0.0000000000000000  0.0000000000000000  0.7499999999999999
  0.4999999999999999  0.0000000000000000  0.7499999999999999
  0.0000000000000000  0.4999999999999999  0.7499999999999999
  0.4999999999999999  0.4999999999999999  0.7499999999999999
  0.2500000000000000  0.0000000000000000  0.0000000000000000
  0.7499999999999999  0.0000000000000000  0.0000000000000000
  0.2500000000000000  0.4999999999999999  0.0000000000000000
  0.7499999999999999  0.4999999999999999  0.0000000000000000
  0.2500000000000000  0.0000000000000000  0.5000000000000000
  0.7499999999999999  0.0000000000000000  0.5000000000000000
  0.2500000000000000  0.4999999999999999  0.5000000000000000
  0.7499999999999999  0.4999999999999999  0.5000000000000000
  0.2334454498792890  0.1255899421295837  0.0523454019685135
  0.7328555077497052  0.1250000000000000  0.0523454019685135
  0.2328555077497053  0.6250000000000000  0.0523454019685135
  0.7328555077497052  0.6250000000000000  0.0523454019685135
  0.2328555077497053  0.1250000000000000  0.5523454019685136
  0.7328555077497052  0.1250000000000000  0.5523454019685136
  0.2328555077497053  0.6250000000000000  0.5523454019685136
  0.7328555077497052  0.6250000000000000  0.5523454019685136
  0.2671444922502947  0.3749999999999999  0.4476545980314864
  0.7671444922502947  0.3749999999999999  0.4476545980314864
  0.2671444922502947  0.8750000000000000  0.4476545980314864
  0.7671444922502947  0.8750000000000000  0.4476545980314864
  0.2671444922502947  0.3749999999999999  0.9476545980314864
  0.7671444922502947  0.3749999999999999  0.9476545980314864
  0.2671444922502947  0.8750000000000000  0.9476545980314864
  0.7671444922502947  0.8750000000000000  0.9476545980314864
  0.0171444922502947  0.3749999999999999  0.3023454019685136
  0.5171444922502946  0.3749999999999999  0.3023454019685136
  0.0171444922502947  0.8750000000000000  0.3023454019685136
  0.5171444922502946  0.8750000000000000  0.3023454019685136
  0.0171444922502947  0.3749999999999999  0.8023454019685136
  0.5171444922502946  0.3749999999999999  0.8023454019685136
  0.0171444922502947  0.8750000000000000  0.8023454019685136
  0.5171444922502946  0.8750000000000000  0.8023454019685136
  0.4828555077497053  0.1250000000000000  0.1976545980314864
  0.9828555077497053  0.1250000000000000  0.1976545980314864
  0.4828555077497053  0.6250000000000000  0.1976545980314864
  0.9828555077497053  0.6250000000000000  0.1976545980314864
  0.4828555077497053  0.1250000000000000  0.6976545980314864
  0.9828555077497053  0.1250000000000000  0.6976545980314864
  0.4828555077497053  0.6250000000000000  0.6976545980314864
  0.9828555077497053  0.6250000000000000  0.6976545980314864
  0.1002984331710270  0.2769367898294914  0.0976111017993044
  0.6002984331710269  0.2769367898294914  0.0976111017993044
  0.1002984331710270  0.7769367898294913  0.0976111017993044
  0.6002984331710269  0.7769367898294913  0.0976111017993044
  0.1002984331710270  0.2769367898294914  0.5976111017993044
  0.6002984331710269  0.2769367898294914  0.5976111017993044
  0.1002984331710270  0.7769367898294913  0.5976111017993044
  0.6002984331710269  0.7769367898294913  0.5976111017993044
  0.3997015668289730  0.2230632101705085  0.4023888982006956
  0.8997015668289730  0.2230632101705085  0.4023888982006956
  0.3997015668289730  0.7230632101705085  0.4023888982006956
  0.8997015668289730  0.7230632101705085  0.4023888982006956
  0.3997015668289730  0.2230632101705085  0.9023888982006956
  0.8997015668289730  0.2230632101705085  0.9023888982006956
  0.3997015668289730  0.7230632101705085  0.9023888982006956
  0.8997015668289730  0.7230632101705085  0.9023888982006956
  0.1497015668289730  0.2230632101705085  0.3476111017993044
  0.6497015668289728  0.2230632101705085  0.3476111017993044
  0.1497015668289730  0.7230632101705085  0.3476111017993044
  0.6497015668289728  0.7230632101705085  0.3476111017993044
  0.1497015668289730  0.2230632101705085  0.8476111017993045
  0.6497015668289728  0.2230632101705085  0.8476111017993045
  0.1497015668289730  0.7230632101705085  0.8476111017993045
  0.6497015668289728  0.7230632101705085  0.8476111017993045
  0.3502984331710269  0.2769367898294914  0.1523888982006956
  0.8502984331710269  0.2769367898294914  0.1523888982006956
  0.3502984331710269  0.7769367898294913  0.1523888982006956
  0.8502984331710269  0.7769367898294913  0.1523888982006956
  0.3502984331710269  0.2769367898294914  0.6523888982006956
  0.8502984331710269  0.2769367898294914  0.6523888982006956
  0.3502984331710269  0.7769367898294913  0.6523888982006956
  0.8502984331710269  0.7769367898294913  0.6523888982006956
  0.3997015668289730  0.0269367898294914  0.4023888982006956
  0.8997015668289730  0.0269367898294914  0.4023888982006956
  0.3997015668289730  0.5269367898294913  0.4023888982006956
  0.8997015668289730  0.5269367898294913  0.4023888982006956
  0.3997015668289730  0.0269367898294914  0.9023888982006956
  0.8997015668289730  0.0269367898294914  0.9023888982006956
  0.3997015668289730  0.5269367898294913  0.9023888982006956
  0.8997015668289730  0.5269367898294913  0.9023888982006956
  0.1002984331710270  0.4730632101705086  0.0976111017993044
  0.6002984331710269  0.4730632101705086  0.0976111017993044
  0.1002984331710270  0.9730632101705086  0.0976111017993044
  0.6002984331710269  0.9730632101705086  0.0976111017993044
  0.1002984331710270  0.4730632101705086  0.5976111017993044
  0.6002984331710269  0.4730632101705086  0.5976111017993044
  0.1002984331710270  0.9730632101705086  0.5976111017993044
  0.6002984331710269  0.9730632101705086  0.5976111017993044
  0.3502984331710269  0.4730632101705086  0.1523888982006956
  0.8502984331710269  0.4730632101705086  0.1523888982006956
  0.3502984331710269  0.9730632101705086  0.1523888982006956
  0.8502984331710269  0.9730632101705086  0.1523888982006956
  0.3502984331710269  0.4730632101705086  0.6523888982006956
  0.8502984331710269  0.4730632101705086  0.6523888982006956
  0.3502984331710269  0.9730632101705086  0.6523888982006956
  0.8502984331710269  0.9730632101705086  0.6523888982006956
  0.1497015668289730  0.0269367898294914  0.3476111017993044
  0.6497015668289728  0.0269367898294914  0.3476111017993044
  0.1497015668289730  0.5269367898294913  0.3476111017993044
  0.6497015668289728  0.5269367898294913  0.3476111017993044
  0.1497015668289730  0.0269367898294914  0.8476111017993045
  0.6497015668289728  0.0269367898294914  0.8476111017993045
  0.1497015668289730  0.5269367898294913  0.8476111017993045
  0.6497015668289728  0.5269367898294913  0.8476111017993045
