generated by phonopy
   1.0
     4.9426997136178192    0.0000000000000000    0.0000000000000000
     0.0000000000000000    6.8849294316688825    0.0000000000000000
     0.0000000000000000    0.0000000000000000    4.7636809917236560
Mg Si O
   4    4   12
Direct
  0.5585646186672720  0.2500000000000000  0.5155711418009773
  0.4414353813327280  0.7500000000000000  0.4844288581990227
  0.9414353813327280  0.7500000000000000  0.0155711418009772
  0.0585646186672721  0.2500000000000000  0.9844288581990227
  0.0000000000000000  0.5000000000000000  0.5000000000000000
  0.5000000000000000  0.5000000000000000  0.0000000000000000
  0.0000000000000000  0.0000000000000000  0.5000000000000000
  0.5000000000000000  0.0000000000000000  0.0000000000000000
  0.4657110154994106  0.2500000000000000  0.1046908039370271
  0.5342889845005894  0.7500000000000000  0.8953091960629729
  0.0342889845005894  0.7500000000000000  0.6046908039370271
  0.9657110154994106  0.2500000000000000  0.3953091960629729
  0.2005968663420540  0.5538735796589829  0.1952222035986088
  0.7994031336579460  0.4461264203410171  0.8047777964013911
  0.2994031336579460  0.4461264203410171  0.6952222035986089
  0.7005968663420540  0.5538735796589829  0.3047777964013912
  0.7994031336579460  0.0538735796589829  0.8047777964013911
  0.2005968663420540  0.9461264203410171  0.1952222035986088
  0.7005968663420540  0.9461264203410171  0.3047777964013912
  0.2994031336579460  0.0538735796589829  0.6952222035986089
